2025-10-12 00:42:27,554 - INFO - 📌 第一个 epoch：默认所有模块使用 checkpoint
2025-10-12 00:44:50,720 - INFO - Epoch 1 completed in 143.188707 seconds
2025-10-12 00:45:23,606 - INFO - torch.cuda.max_memory_reserved() : 15.2421875
2025-10-12 00:47:47,326 - INFO - 
[🔁 拟合反向传播时间模型]
2025-10-12 00:47:47,326 - INFO - 总反向传播时间: 143.236287s
2025-10-12 00:47:47,326 - INFO - 拟合模型: backward_total ≈ 2 × (A + B) + b
2025-10-12 00:47:47,326 - INFO - A = 124.046334, B = 12.055969, b = 7.133984s
2025-10-12 00:47:47,348 - INFO - Set parameter LicenseID to value 2706656
2025-10-12 00:47:47,375 - INFO - Set parameter LogToConsole to value 1
2025-10-12 00:47:47,375 - INFO - Set parameter LogFile to value ""
2025-10-12 00:47:47,375 - INFO - Set parameter Threads to value 12
2025-10-12 00:47:47,375 - INFO - Set parameter TimeLimit to value 3600
2025-10-12 00:47:47,376 - INFO - Set parameter OptimalityTol to value 0.0001
2025-10-12 00:47:47,376 - INFO - Set parameter IntFeasTol to value 1e-05
2025-10-12 00:47:47,376 - INFO - Set parameter StartNodeLimit to value 10000000
2025-10-12 00:47:47,434 - INFO - Set parameter TimeLimit to value 3600
2025-10-12 00:47:47,434 - INFO - 
2025-10-12 00:47:47,434 - INFO - 
2025-10-12 00:47:47,434 - INFO - Restarting solve
2025-10-12 00:47:47,434 - INFO - 
2025-10-12 00:47:47,434 - INFO - 
2025-10-12 00:47:47,436 - INFO - Gurobi Optimizer version 12.0.3 build v12.0.3rc0 (linux64 - "Ubuntu 20.04.6 LTS")
2025-10-12 00:47:47,436 - INFO - 
2025-10-12 00:47:47,436 - INFO - CPU model: Intel(R) Xeon(R) Platinum 8260 CPU @ 2.40GHz, instruction set [SSE2|AVX|AVX2|AVX512]
2025-10-12 00:47:47,436 - INFO - Thread count: 48 physical cores, 96 logical processors, using up to 12 threads
2025-10-12 00:47:47,436 - INFO - 
2025-10-12 00:47:47,436 - INFO - Non-default parameters:
2025-10-12 00:47:47,436 - INFO - TimeLimit  3600
2025-10-12 00:47:47,436 - INFO - OptimalityTol  0.0001
2025-10-12 00:47:47,436 - INFO - StartNodeLimit  10000000
2025-10-12 00:47:47,436 - INFO - Threads  12
2025-10-12 00:47:47,436 - INFO - 
2025-10-12 00:47:47,436 - INFO - Optimize a model with 5603 rows, 3584 columns and 15200 nonzeros
2025-10-12 00:47:47,436 - INFO - Model fingerprint: 0x6ae6636d
2025-10-12 00:47:47,437 - INFO - Variable types: 1024 continuous, 2560 integer (2560 binary)
2025-10-12 00:47:47,437 - INFO - Coefficient statistics:
2025-10-12 00:47:47,437 - INFO -   Matrix range     [1e+00, 5e+15]
2025-10-12 00:47:47,437 - INFO -   Objective range  [6e+04, 2e+06]
2025-10-12 00:47:47,437 - INFO -   Bounds range     [1e+00, 2e+16]
2025-10-12 00:47:47,437 - INFO -   RHS range        [1e+00, 2e+16]
2025-10-12 00:47:47,437 - INFO - Warning: Model contains large matrix coefficient range
2025-10-12 00:47:47,437 - INFO - Warning: Model contains large rhs
2025-10-12 00:47:47,437 - INFO - Warning: Model contains large bounds
2025-10-12 00:47:47,437 - INFO -          Consider reformulating model or setting NumericFocus parameter
2025-10-12 00:47:47,437 - INFO -          to avoid numerical issues.
2025-10-12 00:47:47,452 - INFO - Presolve removed 4283 rows and 1964 columns
2025-10-12 00:47:47,453 - INFO - Presolve time: 0.01s
2025-10-12 00:47:47,453 - INFO - Presolved: 1320 rows, 1620 columns, 4514 nonzeros
2025-10-12 00:47:47,454 - INFO - Variable types: 0 continuous, 1620 integer (1095 binary)
2025-10-12 00:47:47,465 - INFO - 
2025-10-12 00:47:47,465 - INFO - Root relaxation: objective 2.402802e+07, 478 iterations, 0.00 seconds (0.00 work units)
2025-10-12 00:47:47,476 - INFO - 
2025-10-12 00:47:47,476 - INFO -     Nodes    |    Current Node    |     Objective Bounds      |     Work
2025-10-12 00:47:47,476 - INFO -  Expl Unexpl |  Obj  Depth IntInf | Incumbent    BestBd   Gap | It/Node Time
2025-10-12 00:47:47,476 - INFO - 
2025-10-12 00:47:47,476 - INFO -      0     0 2.4028e+07    0   36          - 2.4028e+07      -     -    0s
2025-10-12 00:47:47,518 - INFO -      0     0 2.4042e+07    0  113          - 2.4042e+07      -     -    0s
2025-10-12 00:47:47,525 - INFO -      0     0 2.4042e+07    0  118          - 2.4042e+07      -     -    0s
2025-10-12 00:47:47,533 - INFO -      0     0 2.4043e+07    0  120          - 2.4043e+07      -     -    0s
2025-10-12 00:47:47,550 - INFO -      0     0 2.4043e+07    0  117          - 2.4043e+07      -     -    0s
2025-10-12 00:47:47,551 - INFO -      0     0 2.4047e+07    0  110          - 2.4047e+07      -     -    0s
2025-10-12 00:47:47,553 - INFO -      0     0 2.4048e+07    0  107          - 2.4048e+07      -     -    0s
2025-10-12 00:47:47,553 - INFO -      0     0 2.4050e+07    0   94          - 2.4050e+07      -     -    0s
2025-10-12 00:47:47,555 - INFO -      0     0 2.4052e+07    0  174          - 2.4052e+07      -     -    0s
2025-10-12 00:47:47,578 - INFO -      0     0 2.4081e+07    0   66          - 2.4081e+07      -     -    0s
2025-10-12 00:47:47,587 - INFO -      0     0 2.4081e+07    0   63          - 2.4081e+07      -     -    0s
2025-10-12 00:47:47,595 - INFO -      0     0 2.4081e+07    0   63          - 2.4081e+07      -     -    0s
2025-10-12 00:47:47,606 - INFO -      0     0 2.4081e+07    0   92          - 2.4081e+07      -     -    0s
2025-10-12 00:47:47,656 - INFO -      0     2 2.4081e+07    0   92          - 2.4081e+07      -     -    0s
2025-10-12 00:47:47,711 - INFO - *  358   436              24    2.628841e+07 2.4081e+07  8.40%   6.0    0s
2025-10-12 00:47:47,711 - INFO - *  373   436              23    2.515086e+07 2.4081e+07  4.26%   6.4    0s
2025-10-12 00:47:47,712 - INFO - *  486   436              31    2.507108e+07 2.4081e+07  3.95%   7.9    0s
2025-10-12 00:47:47,750 - INFO - *  850   712              75    2.408057e+07 2.4081e+07  0.00%   4.6    0s
2025-10-12 00:47:47,752 - INFO - 
2025-10-12 00:47:47,752 - INFO - Cutting planes:
2025-10-12 00:47:47,752 - INFO -   Cover: 33
2025-10-12 00:47:47,752 - INFO -   MIR: 1
2025-10-12 00:47:47,752 - INFO -   GUB cover: 2
2025-10-12 00:47:47,752 - INFO - 
2025-10-12 00:47:47,752 - INFO - Explored 1368 nodes (5647 simplex iterations) in 0.32 seconds (0.24 work units)
2025-10-12 00:47:47,752 - INFO - Thread count was 12 (of 96 available processors)
2025-10-12 00:47:47,753 - INFO - 
2025-10-12 00:47:47,753 - INFO - Solution count 4: 2.40806e+07 2.50711e+07 2.51509e+07 2.62884e+07 
2025-10-12 00:47:47,753 - INFO - 
2025-10-12 00:47:47,753 - INFO - Optimal solution found (tolerance 1.00e-04)
2025-10-12 00:47:47,753 - INFO - Best objective 2.408056800000e+07, best bound 2.408056800000e+07, gap 0.0000%
2025-10-12 00:47:47,764 - INFO - 规划前的显存GB：22.0
2025-10-12 00:47:47,764 - INFO - 规划后的显存GB：20.371310710906982
2025-10-12 00:47:47,764 - INFO - ✅ 最优策略：[1, 1, 1, 1, 1, 1, 1, 1, 0, 1, 0, 0, 0, 0, 0, 1]
2025-10-12 00:47:47,764 - INFO - 📌 checkpoint 的欧氏长度:, []
2025-10-12 00:47:47,764 - INFO - 📌 checkpoint 的余弦长度:, [128, 777, 1101, 1426, 1750, 2075]
2025-10-12 00:47:47,764 - INFO - 💾 最终显存峰值：%.2f MB % 27442.5994720459
2025-10-12 00:47:47,781 - INFO - Epoch 2 completed in 144.173686 seconds
2025-10-12 00:47:47,781 - INFO - torch.cuda.max_memory_reserved() : 15.2421875
2025-10-12 00:49:37,713 - INFO - Epoch 3 completed in 109.931226 seconds
2025-10-12 00:49:37,713 - INFO - 
====================== [第1个 Epoch 收集统计数据] ======================
2025-10-12 00:49:37,713 - INFO - 
🔍 EUCLIDEAN modules:
2025-10-12 00:49:37,713 - INFO - [Shapelet 128] forward_avg=0.003238s over 278 calls | peak=545.46MB | final=0.00MB
2025-10-12 00:49:37,713 - INFO - [Shapelet 452] forward_avg=0.008117s over 278 calls | peak=1696.97MB | final=0.00MB
2025-10-12 00:49:37,713 - INFO - [Shapelet 777] forward_avg=0.011959s over 278 calls | peak=2541.23MB | final=0.00MB
2025-10-12 00:49:37,713 - INFO - [Shapelet 1101] forward_avg=0.014321s over 278 calls | peak=3076.86MB | final=0.00MB
2025-10-12 00:49:37,713 - INFO - [Shapelet 1426] forward_avg=0.015427s over 278 calls | peak=3302.11MB | final=0.00MB
2025-10-12 00:49:37,713 - INFO - [Shapelet 1750] forward_avg=0.014906s over 278 calls | peak=3220.47MB | final=0.00MB
2025-10-12 00:49:37,713 - INFO - [Shapelet 2075] forward_avg=0.013163s over 278 calls | peak=2830.50MB | final=0.00MB
2025-10-12 00:49:37,713 - INFO - [Shapelet 2400] forward_avg=0.009752s over 278 calls | peak=2129.31MB | final=0.00MB
2025-10-12 00:49:37,713 - INFO - 
🔍 COSINE modules:
2025-10-12 00:49:37,713 - INFO - [Shapelet 128] forward_avg=0.002272s over 278 calls | peak=360.86MB | final=0.00MB
2025-10-12 00:49:37,713 - INFO - [Shapelet 452] forward_avg=0.005116s over 278 calls | peak=1127.04MB | final=0.00MB
2025-10-12 00:49:37,713 - INFO - [Shapelet 777] forward_avg=0.007547s over 278 calls | peak=1688.97MB | final=0.00MB
2025-10-12 00:49:37,713 - INFO - [Shapelet 1101] forward_avg=0.008968s over 278 calls | peak=2044.93MB | final=0.00MB
2025-10-12 00:49:37,713 - INFO - [Shapelet 1426] forward_avg=0.009722s over 278 calls | peak=2194.08MB | final=0.00MB
2025-10-12 00:49:37,713 - INFO - [Shapelet 1750] forward_avg=0.009392s over 278 calls | peak=2138.55MB | final=0.00MB
2025-10-12 00:49:37,713 - INFO - [Shapelet 2075] forward_avg=0.008500s over 278 calls | peak=1876.87MB | final=0.00MB
2025-10-12 00:49:37,714 - INFO - [Shapelet 2400] forward_avg=0.006336s over 278 calls | peak=1408.89MB | final=0.00MB
2025-10-12 00:49:37,714 - INFO - 
🔍 CROSS modules:
2025-10-12 00:49:37,714 - INFO - [Shapelet 128] forward_avg=0.000646s over 278 calls
2025-10-12 00:49:37,714 - INFO - [Shapelet 452] forward_avg=0.001083s over 278 calls
2025-10-12 00:49:37,714 - INFO - [Shapelet 777] forward_avg=0.001650s over 278 calls
2025-10-12 00:49:37,714 - INFO - [Shapelet 1101] forward_avg=0.002325s over 278 calls
2025-10-12 00:49:37,714 - INFO - [Shapelet 1426] forward_avg=0.003031s over 278 calls
2025-10-12 00:49:37,714 - INFO - [Shapelet 1750] forward_avg=0.003683s over 278 calls
2025-10-12 00:49:37,714 - INFO - [Shapelet 2075] forward_avg=0.004341s over 278 calls
2025-10-12 00:49:37,714 - INFO - [Shapelet 2400] forward_avg=0.004926s over 278 calls
2025-10-12 00:49:37,714 - INFO - 
💾 模型第一次反向传播阶段的显存峰值（所有模块中的最大值）: 15782.91 MB
2025-10-12 00:49:37,714 - INFO - 
💾 模型初始显存: 104.49 MB
2025-10-12 00:49:37,714 - INFO - =======================================================================

2025-10-12 00:49:37,714 - INFO - torch.cuda.max_memory_reserved() : 20.42578125
2025-10-12 00:51:29,297 - INFO - Epoch 4 completed in 111.582195 seconds
2025-10-12 00:51:29,297 - INFO - torch.cuda.max_memory_reserved() : 20.42578125
2025-10-12 00:53:20,967 - INFO - Epoch 5 completed in 111.668772 seconds
2025-10-12 00:53:20,967 - INFO - torch.cuda.max_memory_reserved() : 20.427734375
2025-10-12 00:55:11,982 - INFO - Epoch 6 completed in 111.014195 seconds
2025-10-12 00:55:11,982 - INFO - torch.cuda.max_memory_reserved() : 20.427734375
2025-10-12 00:57:04,854 - INFO - Epoch 7 completed in 112.871248 seconds
2025-10-12 00:57:04,854 - INFO - torch.cuda.max_memory_reserved() : 20.427734375
2025-10-12 00:58:57,254 - INFO - Epoch 8 completed in 112.399187 seconds
2025-10-12 00:58:57,255 - INFO - torch.cuda.max_memory_reserved() : 20.427734375
2025-10-12 01:00:49,769 - INFO - Epoch 9 completed in 112.513663 seconds
2025-10-12 01:00:49,769 - INFO - torch.cuda.max_memory_reserved() : 20.427734375
2025-10-12 01:02:41,733 - INFO - Epoch 10 completed in 111.963443 seconds
2025-10-12 01:03:14,706 - INFO - torch.cuda.max_memory_reserved() : 20.427734375
2025-10-12 01:03:14,707 - INFO - !!!采用策略后的几个epoch 平均时间:111.74299117922783
2025-10-12 01:03:14,707 - INFO - 



